p edge 50 596 20
v 3 5 10 45
v 2 8 29
v 2 12 24
v 2 16 47
v 5 13 22 25 32 38
v 1 36
v 3 1 18 35
v 2 37 46
v 3 6 11 27
v 2 15 49
v 1 34
v 2 2 40
v 2 7 20
v 2 3 42
v 1 48
v 2 21 50
v 2 4 26
v 2 14 19
v 7 9 23 28 30 33 43 44
v 4 17 31 39 41
e 1 3
e 1 6
e 1 7
e 1 8
e 1 9
e 1 11
e 1 12
e 1 13
e 1 14
e 1 18
e 1 23
e 1 25
e 1 26
e 1 29
e 1 30
e 1 31
e 1 32
e 1 34
e 1 37
e 1 39
e 1 40
e 1 41
e 1 44
e 1 45
e 1 48
e 1 49
e 2 3
e 2 6
e 2 8
e 2 13
e 2 14
e 2 15
e 2 17
e 2 20
e 2 22
e 2 24
e 2 25
e 2 27
e 2 31
e 2 33
e 2 34
e 2 38
e 2 40
e 2 41
e 2 44
e 2 45
e 2 47
e 3 4
e 3 6
e 3 9
e 3 10
e 3 13
e 3 14
e 3 16
e 3 18
e 3 19
e 3 22
e 3 23
e 3 25
e 3 26
e 3 27
e 3 28
e 3 31
e 3 33
e 3 34
e 3 39
e 3 40
e 3 41
e 3 42
e 3 43
e 3 44
e 3 47
e 3 48
e 3 49
e 4 9
e 4 11
e 4 12
e 4 13
e 4 14
e 4 17
e 4 18
e 4 19
e 4 20
e 4 21
e 4 23
e 4 25
e 4 26
e 4 27
e 4 28
e 4 29
e 4 31
e 4 34
e 4 36
e 4 41
e 4 43
e 4 45
e 4 46
e 4 48
e 4 49
e 5 6
e 5 9
e 5 10
e 5 12
e 5 15
e 5 17
e 5 20
e 5 21
e 5 22
e 5 23
e 5 24
e 5 25
e 5 26
e 5 28
e 5 33
e 5 35
e 5 36
e 5 37
e 5 40
e 5 41
e 5 44
e 5 45
e 5 47
e 5 49
e 5 50
e 6 8
e 6 9
e 6 10
e 6 12
e 6 13
e 6 14
e 6 15
e 6 16
e 6 17
e 6 19
e 6 22
e 6 26
e 6 28
e 6 29
e 6 42
e 6 43
e 6 44
e 6 46
e 6 47
e 6 48
e 6 49
e 7 8
e 7 10
e 7 12
e 7 18
e 7 19
e 7 21
e 7 22
e 7 25
e 7 26
e 7 27
e 7 28
e 7 30
e 7 31
e 7 36
e 7 37
e 7 40
e 7 42
e 7 45
e 7 46
e 7 47
e 7 49
e 8 9
e 8 10
e 8 13
e 8 15
e 8 17
e 8 20
e 8 21
e 8 22
e 8 25
e 8 26
e 8 28
e 8 29
e 8 31
e 8 34
e 8 35
e 8 39
e 8 40
e 8 41
e 8 42
e 8 44
e 8 45
e 8 50
e 9 12
e 9 13
e 9 15
e 9 16
e 9 20
e 9 21
e 9 24
e 9 25
e 9 27
e 9 31
e 9 32
e 9 33
e 9 34
e 9 42
e 9 44
e 9 45
e 9 46
e 9 50
e 10 11
e 10 14
e 10 18
e 10 21
e 10 22
e 10 23
e 10 25
e 10 28
e 10 29
e 10 32
e 10 33
e 10 36
e 10 37
e 10 40
e 10 41
e 10 45
e 10 49
e 11 12
e 11 13
e 11 14
e 11 17
e 11 19
e 11 22
e 11 24
e 11 26
e 11 27
e 11 28
e 11 34
e 11 35
e 11 36
e 11 37
e 11 40
e 11 47
e 11 48
e 12 13
e 12 14
e 12 18
e 12 21
e 12 23
e 12 30
e 12 32
e 12 35
e 12 37
e 12 38
e 12 39
e 12 43
e 12 44
e 12 45
e 12 49
e 12 50
e 13 15
e 13 16
e 13 18
e 13 19
e 13 21
e 13 22
e 13 26
e 13 34
e 13 35
e 13 37
e 13 42
e 13 43
e 13 44
e 13 46
e 13 47
e 13 50
e 14 15
e 14 17
e 14 18
e 14 19
e 14 20
e 14 22
e 14 27
e 14 32
e 14 33
e 14 35
e 14 39
e 14 40
e 14 41
e 14 42
e 14 43
e 14 46
e 14 47
e 14 49
e 14 50
e 15 17
e 15 19
e 15 21
e 15 23
e 15 25
e 15 29
e 15 30
e 15 31
e 15 32
e 15 33
e 15 34
e 15 37
e 15 39
e 15 41
e 15 44
e 15 47
e 15 49
e 16 17
e 16 19
e 16 25
e 16 27
e 16 29
e 16 30
e 16 31
e 16 32
e 16 33
e 16 34
e 16 37
e 16 38
e 16 42
e 16 44
e 16 45
e 16 46
e 16 47
e 16 48
e 16 50
e 17 18
e 17 19
e 17 20
e 17 26
e 17 32
e 17 35
e 17 36
e 17 41
e 17 43
e 17 45
e 17 50
e 18 20
e 18 21
e 18 23
e 18 25
e 18 26
e 18 27
e 18 28
e 18 30
e 18 31
e 18 34
e 18 35
e 18 37
e 18 38
e 18 41
e 18 47
e 18 48
e 18 49
e 18 50
e 19 22
e 19 23
e 19 24
e 19 27
e 19 28
e 19 29
e 19 30
e 19 32
e 19 34
e 19 35
e 19 37
e 19 38
e 19 41
e 19 43
e 19 47
e 19 49
e 20 21
e 20 23
e 20 27
e 20 28
e 20 31
e 20 34
e 20 37
e 20 40
e 20 42
e 20 43
e 20 46
e 20 48
e 20 50
e 21 25
e 21 29
e 21 30
e 21 31
e 21 33
e 21 36
e 21 37
e 21 40
e 21 41
e 21 43
e 21 47
e 21 50
e 22 23
e 22 24
e 22 25
e 22 27
e 22 29
e 22 34
e 22 36
e 22 40
e 22 43
e 22 45
e 22 48
e 23 25
e 23 27
e 23 28
e 23 29
e 23 30
e 23 31
e 23 35
e 23 36
e 23 39
e 23 43
e 23 44
e 23 45
e 24 25
e 24 29
e 24 30
e 24 31
e 24 32
e 24 33
e 24 37
e 24 38
e 24 39
e 24 40
e 24 41
e 24 44
e 24 45
e 24 48
e 24 50
e 25 26
e 25 30
e 25 31
e 25 32
e 25 35
e 25 36
e 25 39
e 25 40
e 25 41
e 25 42
e 25 46
e 25 47
e 25 48
e 26 28
e 26 29
e 26 30
e 26 31
e 26 32
e 26 35
e 26 37
e 26 39
e 26 40
e 26 42
e 26 43
e 26 46
e 26 47
e 26 48
e 27 29
e 27 30
e 27 31
e 27 33
e 27 36
e 27 38
e 27 41
e 27 42
e 27 43
e 27 44
e 27 47
e 28 29
e 28 30
e 28 31
e 28 32
e 28 35
e 28 41
e 28 42
e 28 43
e 28 45
e 28 46
e 28 48
e 28 49
e 29 30
e 29 33
e 29 34
e 29 35
e 29 36
e 29 42
e 29 43
e 29 47
e 29 49
e 29 50
e 30 31
e 30 32
e 30 37
e 30 39
e 30 41
e 31 32
e 31 35
e 31 36
e 31 38
e 31 39
e 31 44
e 31 46
e 31 47
e 31 49
e 31 50
e 32 33
e 32 35
e 32 39
e 32 41
e 32 42
e 33 34
e 33 36
e 33 37
e 33 38
e 33 39
e 33 41
e 33 44
e 33 48
e 33 50
e 34 38
e 34 39
e 34 40
e 34 41
e 34 42
e 34 44
e 34 47
e 35 37
e 35 38
e 35 39
e 35 40
e 35 43
e 35 44
e 35 47
e 35 50
e 36 39
e 36 40
e 36 41
e 36 42
e 36 43
e 36 46
e 36 47
e 36 50
e 37 38
e 37 39
e 37 40
e 37 41
e 37 44
e 37 45
e 37 47
e 37 49
e 37 50
e 38 39
e 38 40
e 38 43
e 38 45
e 38 46
e 38 49
e 38 50
e 39 40
e 39 41
e 39 45
e 39 46
e 39 47
e 39 48
e 40 46
e 40 47
e 41 43
e 41 49
e 41 50
e 42 43
e 42 44
e 42 45
e 42 46
e 42 48
e 42 49
e 42 50
e 43 46
e 43 48
e 44 45
e 44 46
e 44 47
e 44 48
e 44 49
e 44 50
e 45 46
e 45 48
e 46 49
e 47 48
e 47 50
e 48 49
e 48 50
